inputs/40.in
12
0 71 23 48 20 42 77 78 71 99 93 65 
71 0 94 69 16 45 83 100 62 21 55 89 
23 94 0 14 21 97 40 7 13 19 83 63 
48 69 14 0 35 75 5 22 63 9 25 4 
20 16 21 35 0 5 31 25 54 39 63 72 
42 45 97 75 5 0 59 53 7 78 18 97 
77 83 40 5 31 59 0 71 10 96 56 58 
78 100 7 22 25 53 71 0 41 1 27 78 
71 62 13 63 54 7 10 41 0 56 13 35 
99 21 19 9 39 78 96 1 56 0 21 82 
93 55 83 25 63 18 56 27 13 21 0 38 
65 89 63 4 72 97 58 78 35 82 38 0 
BRBRRRRBBBRB
