output/40.out
1 3 8 11 10 2 5 6 9 7 4 12 
